
Gurobi 7.0.2 (win64) logging started 06/27/20 08:18:37

Read LP format model from file C:\George\Professor\Pesquisa\Orientacoes em Pos-graduacao\2019 MSC PPGCC Guilherme Figueroa\Fanjuls Solver\Results\I_150_15_S_1-49_6_MTZ_KB.lp
Reading time = 2.10 seconds
: 27330 rows, 342151 columns, 1408515 nonzeros
Optimize a model with 27330 rows, 342151 columns and 1408515 nonzeros
Variable types: 2401 continuous, 339750 integer (339750 binary)
Coefficient statistics:
  Matrix range     [1e+00, 2e+02]
  Objective range  [1e+00, 1e+00]
  Bounds range     [1e+00, 1e+00]
  RHS range        [1e+00, 1e+02]
Presolve time: 3.58s
Presolved: 27330 rows, 342151 columns, 1408515 nonzeros
Variable types: 150 continuous, 342001 integer (342000 binary)
Found heuristic solution: objective 10790.000000

Root simplex log...

Iteration    Objective       Primal Inf.    Dual Inf.      Time
       0    0.0000000e+00   3.000000e+02   0.000000e+00     10s
    1406    3.9879426e-05   2.840034e+03   0.000000e+00     10s
    5064    1.3684708e-04   2.402870e+03   0.000000e+00     15s
    6730    1.7096619e-04   2.572187e+03   0.000000e+00     20s
    7720    2.1045137e-04   1.520589e+03   0.000000e+00     25s
    8766    2.3871093e-04   4.810317e+03   0.000000e+00     30s
   10052    2.7068359e-04   2.556938e+03   0.000000e+00     36s
   11031    3.0732223e-04   2.347083e+03   0.000000e+00     41s
   12125    3.3738608e-04   2.337090e+03   0.000000e+00     46s
   13257    3.6732389e-04   3.303978e+03   0.000000e+00     50s
   14402    4.0312195e-04   3.497675e+03   0.000000e+00     56s
   15402    4.4771929e-04   5.500178e+03   0.000000e+00     61s
   16640    4.9142518e-04   3.281233e+03   0.000000e+00     66s
   17579    5.1898781e-04   3.516880e+03   0.000000e+00     70s
   18579    5.6146721e-04   3.706065e+03   0.000000e+00     75s
   21645    7.0851270e-04   5.874645e+03   0.000000e+00     80s
   24915    9.0171646e-04   8.504896e+03   0.000000e+00     86s
   26837    1.0455306e-03   5.871743e+04   0.000000e+00     90s
   30324    1.6939039e-03   3.303448e+04   0.000000e+00     95s
   36238    9.1072549e+01   2.638819e+03   0.000000e+00    100s
   38195    9.5756602e+01   3.607665e+03   0.000000e+00    105s
   39657    9.7457027e+01   3.141270e+02   0.000000e+00    111s
   40619    9.7959322e+01   6.858461e+03   0.000000e+00    115s
   41479    9.8227004e+01   9.447416e+02   0.000000e+00    120s
   42179    9.8503024e+01   5.217402e+02   0.000000e+00    125s
   42779    9.8633457e+01   2.279418e+01   0.000000e+00    130s
   43279    9.8673592e+01   5.804227e-01   0.000000e+00    135s
   43398    9.8673674e+01   0.000000e+00   0.000000e+00    137s

Root relaxation: objective 9.867367e+01, 43398 iterations, 127.28 seconds

    Nodes    |    Current Node    |     Objective Bounds      |     Work
 Expl Unexpl |  Obj  Depth IntInf | Incumbent    BestBd   Gap | It/Node Time

     0     0   98.67367    0  550 10790.0000   98.67367  99.1%     -  137s
H    0     0                     139.0000000   98.67367  29.0%     -  196s
     0     0   99.08332    0  603  139.00000   99.08332  28.7%     -  326s
     0     0   99.18242    0  592  139.00000   99.18242  28.6%     -  373s
     0     0   99.18766    0  595  139.00000   99.18766  28.6%     -  377s
     0     0   99.20562    0  585  139.00000   99.20562  28.6%     -  402s
     0     0   99.20575    0  588  139.00000   99.20575  28.6%     -  404s
     0     0   99.22148    0  586  139.00000   99.22148  28.6%     -  409s
     0     0   99.22193    0  584  139.00000   99.22193  28.6%     -  411s
     0     0   99.22193    0  584  139.00000   99.22193  28.6%     -  414s
     0     0   99.22193    0  584  139.00000   99.22193  28.6%     -  417s
     0     0  100.00000    0  437  139.00000  100.00000  28.1%     - 1488s
     0     0  100.00000    0  437  139.00000  100.00000  28.1%     - 1640s
     0     2  100.00000    0  437  139.00000  100.00000  28.1%     - 2024s
     1     3  100.00000    1  584  139.00000  100.00000  28.1%  7103 2174s
     2     4  100.00000    1  564  139.00000  100.00000  28.1%  4889 2289s
     3     5  100.00000    2  581  139.00000  100.00000  28.1%  4066 2375s
     4     6  100.00000    2  597  139.00000  100.00000  28.1%  3402 2437s
     5     7  100.00000    3  597  139.00000  100.00000  28.1%  2889 2477s
     6     8  100.00000    3  582  139.00000  100.00000  28.1%  2749 2536s
     7     9  100.00000    4  590  139.00000  100.00000  28.1%  2380 2549s
     8    10  100.00000    5  597  139.00000  100.00000  28.1%  2237 2585s
     9    11  100.00000    6  609  139.00000  100.00000  28.1%  2235 2653s
    10    12  100.00000    7  601  139.00000  100.00000  28.1%  2112 2686s
    11    12  100.09024    7  550  139.00000  100.00000  28.1%  2428 2756s
    12    13  100.00000    8  589  139.00000  100.00000  28.1%  2728 2850s
    13    14  100.00000    9  585  139.00000  100.00000  28.1%  2589 2878s
    14    15  100.00000   10  573  139.00000  100.00000  28.1%  2493 2906s
    15    16  100.00000   11  589  139.00000  100.00000  28.1%  2336 2910s
    16    16  100.24084   11  539  139.00000  100.00000  28.1%  3375 3114s
    17    17  100.00000   12  583  139.00000  100.00000  28.1%  3292 3142s
    18    17  100.26628   12  508  139.00000  100.00000  28.1%  3426 3210s
    19    18  100.00000   13  576  139.00000  100.00000  28.1%  3414 3248s
    20    18  100.05075   14  525  139.00000  100.00000  28.1%  3298 3266s
    21    18  100.07639   14  508  139.00000  100.00000  28.1%  3249 3293s
    22    19  101.00000   15  525  139.00000  100.00000  28.1%  3938 3487s
    23    20  101.00000   16  596  139.00000  100.00000  28.1%  3778 3546s
    24    21  101.00000   16  573  139.00000  100.00000  28.1%  3653 3582s
    25    22  101.00000   17  533  139.00000  100.00000  28.1%  3553 3600s

Cutting planes:
  Learned: 5
  MIR: 80

Explored 26 nodes (183293 simplex iterations) in 3600.20 seconds
Thread count was 1 (of 12 available processors)

Solution count 2: 139 10790 
Pool objective bound 100

Time limit reached
Best objective 1.390000000000e+02, best bound 1.000000000000e+02, gap 28.0576%
